c This Formular is generated by mcnf
c
c    horn? no 
c    forced? no 
c    mixed sat? no 
c    clause length = 3 
c
p cnf 20  91 
 -16 -20 1 0
9 -20 -15 0
17 -18 -10 0
-10 -14 -6 0
-6 -20 13 0
-11 -12 -7 0
17 19 12 0
2 -8 -20 0
16 13 -4 0
14 9 -8 0
16 -1 8 0
4 15 16 0
-10 -13 5 0
-11 -4 6 0
-13 1 10 0
14 1 4 0
5 -11 16 0
-6 8 13 0
-13 -7 19 0
4 20 -10 0
-15 -6 -16 0
1 2 -13 0
-6 8 16 0
-4 -16 7 0
-19 -15 17 0
15 -5 4 0
10 -19 14 0
-16 -7 12 0
20 -1 -17 0
14 -13 7 0
19 -7 11 0
-3 -6 5 0
2 11 -14 0
2 8 12 0
-3 15 -10 0
-11 13 -5 0
15 14 -17 0
11 19 -10 0
19 -3 4 0
13 14 1 0
17 16 20 0
%
0

22 9 69 17 46 82 71 58 61 25 85 6 31 14 94 53 77 65 49 33
